n = 100;
C = 25145;
w = [445,638,286,836,332,544,28,334,691,742,521,599,505,45,993,866,152,349,208,742,957,545,109,225,233,269,996,256,455,927,302,577,519,945,876,813,954,150,226,776,567,83,305,331,861,992,239,261,482,527,35,309,316,748,715,74,366,381,512,111,949,92,517,569,244,547,980,890,212,968,730,612,544,801,60,446,936,873,97,107,987,524,514,491,315,551,408,769,420,667,324,7,358,324,125,535,891,749,341,636];
p = [445,638,286,836,332,544,28,334,691,742,521,599,505,45,993,866,152,349,208,742,957,545,109,225,233,269,996,256,455,927,302,577,519,945,876,813,954,150,226,776,567,83,305,331,861,992,239,261,482,527,35,309,316,748,715,74,366,381,512,111,949,92,517,569,244,547,980,890,212,968,730,612,544,801,60,446,936,873,97,107,987,524,514,491,315,551,408,769,420,667,324,7,358,324,125,535,891,749,341,636];
